data;

param order := 3;
param n := 9;
param givens :  1 2 3 4 5 6 7 8 9 :=
                1 5 . . . . . . 4 . 
                2 7 . . 8 . . . . . 
                3 . . . . . . . . . 
                4 . . . . . . . . . 
                5 . . . . . . . . . 
                6 . . . . . . . . . 
                7 . . . 3 . . . . . 
                8 2 . . . . . . 1 . 
                9 . . . . 2 . . . . 
;

end;
